data/solutions/recovery/degenerate/moderate/binding/degenerate_moderate_instance36/4.sol
Elapsed time: 0.04
Upper bound: 1458865864.0
Planning weighted value: 37736460768.0
C[0]=1458865864.0
C[1]=1458359321.0
C[2]=1404548763.0
C[3]=1318229066.0
C[4]=0.0
y[0]=2
y[1]=3
y[2]=3
y[3]=3
y[4]=3
y[5]=1
y[6]=3
y[7]=1
y[8]=2
y[9]=3
y[10]=3
y[11]=3
y[12]=3
y[13]=0
y[14]=3
y[15]=1
y[16]=3
y[17]=3
y[18]=2
y[19]=1
y[20]=3
y[21]=1
y[22]=0
y[23]=3
y[24]=3
y[25]=0
y[26]=2
y[27]=3
y[28]=1
y[29]=3
y[30]=0
y[31]=0
y[32]=3
y[33]=0
y[34]=2
y[35]=2
y[36]=0
y[37]=3
y[38]=3
y[39]=2
y[40]=3
y[41]=3
y[42]=3
y[43]=3
y[44]=1
y[45]=0
